% Auto-generated by scripts/generate_dzn.py
% problem_type   = regex
% instance       = regex_83
% source_json    = instances_json/2_high_blowup/regex_83.json
% blowup         = 33.285714285714285
% representation = DFA

mode = 0;

var_count = 20;
Q = 466;
S = 2;
q0 = 1;
F = {289, 290, 291, 292, 293, 294, 295, 296, 297, 298, 299, 300, 301, 302, 303, 304, 305, 306, 307, 308, 309, 310, 311, 312, 313, 314, 315, 316, 317, 318, 319, 320, 321, 322, 323, 324, 325, 326, 327, 328, 329, 330, 331, 332, 333, 334, 335, 336, 337, 338, 339, 340, 341, 342, 343, 344, 345, 346, 347, 348, 349, 350, 351, 352, 353, 354, 355, 356, 357, 358, 359, 360, 361, 362, 363, 364, 365, 366, 367, 368, 369, 370, 371, 372, 373, 374, 375, 376, 377, 378, 379, 380, 381, 382, 383, 384, 385, 386, 387, 388, 389, 390, 391, 392, 393, 394, 395, 396, 397, 398, 399, 400, 401, 402, 403, 404, 405, 406, 407, 408, 409, 410, 411, 412, 413, 414, 415, 416, 417, 418, 419, 420, 421, 422, 423, 424, 425, 426, 427, 428, 429, 430, 431, 432, 433, 434, 435, 436, 437, 438, 439, 440, 441, 442, 443, 444, 445, 446, 447, 448, 449, 450, 451, 452, 453, 454, 455, 456, 457, 458, 459, 460, 461, 462, 463, 464, 465, 466};
d_dfa = array2d(1..466, 1..2, [
  1, 2,
  3, 2,
  1, 4,
  6, 5,
  8, 7,
  10, 9,
  12, 11,
  14, 13,
  16, 15,
  14, 11,
  18, 17,
  20, 19,
  22, 21,
  20, 17,
  24, 23,
  26, 25,
  28, 27,
  30, 29,
  32, 31,
  30, 27,
  34, 33,
  36, 35,
  38, 37,
  40, 39,
  42, 41,
  40, 37,
  44, 43,
  46, 45,
  48, 47,
  46, 43,
  50, 49,
  52, 51,
  54, 53,
  56, 55,
  58, 57,
  56, 53,
  60, 59,
  62, 61,
  64, 63,
  62, 59,
  66, 65,
  68, 67,
  70, 69,
  72, 71,
  74, 73,
  72, 69,
  76, 75,
  78, 77,
  80, 79,
  82, 81,
  84, 83,
  82, 79,
  86, 85,
  88, 87,
  90, 89,
  88, 85,
  92, 91,
  94, 93,
  96, 95,
  98, 97,
  100, 99,
  98, 95,
  102, 101,
  104, 103,
  106, 105,
  108, 107,
  110, 109,
  108, 105,
  112, 111,
  114, 113,
  116, 115,
  114, 111,
  118, 117,
  120, 119,
  122, 121,
  124, 123,
  126, 125,
  124, 121,
  128, 127,
  130, 129,
  132, 131,
  130, 127,
  134, 133,
  136, 135,
  138, 137,
  140, 139,
  142, 141,
  140, 137,
  144, 143,
  146, 145,
  148, 147,
  150, 149,
  152, 151,
  150, 147,
  154, 153,
  156, 155,
  158, 157,
  156, 153,
  160, 159,
  162, 161,
  164, 163,
  166, 165,
  168, 167,
  166, 163,
  170, 169,
  172, 171,
  174, 173,
  172, 169,
  176, 175,
  178, 177,
  180, 179,
  182, 181,
  184, 183,
  182, 179,
  186, 185,
  188, 187,
  190, 189,
  192, 191,
  194, 193,
  192, 189,
  196, 195,
  198, 197,
  200, 199,
  198, 195,
  202, 201,
  204, 203,
  206, 205,
  208, 207,
  210, 209,
  208, 205,
  212, 211,
  214, 213,
  216, 215,
  218, 217,
  220, 219,
  218, 215,
  222, 221,
  224, 223,
  226, 225,
  224, 221,
  228, 227,
  230, 229,
  232, 231,
  234, 233,
  236, 235,
  234, 231,
  238, 237,
  240, 239,
  242, 241,
  240, 237,
  244, 243,
  246, 245,
  248, 247,
  250, 249,
  252, 251,
  250, 247,
  254, 253,
  256, 255,
  258, 257,
  260, 259,
  262, 261,
  260, 257,
  264, 263,
  266, 265,
  268, 267,
  266, 263,
  270, 269,
  272, 271,
  274, 273,
  276, 275,
  278, 277,
  276, 273,
  280, 279,
  282, 281,
  284, 283,
  286, 285,
  288, 287,
  286, 283,
  290, 289,
  292, 291,
  294, 293,
  292, 289,
  296, 295,
  298, 297,
  300, 299,
  302, 301,
  304, 303,
  302, 299,
  306, 305,
  308, 307,
  310, 309,
  308, 305,
  312, 311,
  314, 313,
  316, 315,
  318, 317,
  320, 319,
  318, 315,
  322, 321,
  324, 323,
  326, 325,
  328, 327,
  330, 329,
  328, 325,
  332, 331,
  334, 333,
  336, 335,
  334, 331,
  338, 337,
  340, 339,
  342, 341,
  344, 343,
  346, 345,
  344, 341,
  348, 347,
  350, 349,
  352, 351,
  350, 347,
  354, 353,
  356, 355,
  358, 357,
  360, 359,
  362, 361,
  360, 357,
  364, 363,
  366, 365,
  368, 367,
  370, 369,
  372, 371,
  370, 367,
  374, 373,
  376, 375,
  378, 377,
  376, 373,
  380, 379,
  382, 381,
  384, 383,
  386, 385,
  388, 387,
  386, 383,
  390, 389,
  392, 391,
  394, 393,
  396, 395,
  398, 397,
  396, 393,
  400, 399,
  402, 401,
  404, 403,
  402, 399,
  406, 405,
  408, 407,
  410, 409,
  412, 411,
  414, 413,
  412, 409,
  416, 415,
  418, 417,
  420, 419,
  418, 415,
  422, 421,
  424, 423,
  426, 425,
  428, 427,
  430, 429,
  428, 425,
  432, 431,
  434, 433,
  436, 435,
  438, 437,
  440, 439,
  438, 435,
  442, 441,
  444, 443,
  446, 445,
  444, 441,
  448, 447,
  450, 449,
  452, 451,
  454, 453,
  456, 455,
  454, 451,
  458, 457,
  460, 459,
  462, 461,
  460, 457,
  464, 463,
  466, 465,
  3, 2,
  1, 4,
  6, 5,
  1, 2,
  8, 7,
  10, 9,
  12, 11,
  14, 13,
  16, 15,
  14, 11,
  18, 17,
  20, 19,
  22, 21,
  20, 17,
  24, 23,
  26, 25,
  28, 27,
  30, 29,
  32, 31,
  30, 27,
  34, 33,
  36, 35,
  38, 37,
  40, 39,
  42, 41,
  40, 37,
  44, 43,
  46, 45,
  48, 47,
  46, 43,
  50, 49,
  52, 51,
  54, 53,
  56, 55,
  58, 57,
  56, 53,
  60, 59,
  62, 61,
  64, 63,
  62, 59,
  66, 65,
  68, 67,
  70, 69,
  72, 71,
  74, 73,
  72, 69,
  76, 75,
  78, 77,
  80, 79,
  82, 81,
  84, 83,
  82, 79,
  86, 85,
  88, 87,
  90, 89,
  88, 85,
  92, 91,
  94, 93,
  96, 95,
  98, 97,
  100, 99,
  98, 95,
  102, 101,
  104, 103,
  106, 105,
  108, 107,
  110, 109,
  108, 105,
  112, 111,
  114, 113,
  116, 115,
  114, 111,
  118, 117,
  120, 119,
  122, 121,
  124, 123,
  126, 125,
  124, 121,
  128, 127,
  130, 129,
  132, 131,
  130, 127,
  134, 133,
  136, 135,
  138, 137,
  140, 139,
  142, 141,
  140, 137,
  144, 143,
  146, 145,
  148, 147,
  150, 149,
  152, 151,
  150, 147,
  154, 153,
  156, 155,
  158, 157,
  156, 153,
  160, 159,
  162, 161,
  164, 163,
  166, 165,
  168, 167,
  166, 163,
  170, 169,
  172, 171,
  174, 173,
  172, 169,
  176, 175,
  178, 177,
  180, 179,
  182, 181,
  184, 183,
  182, 179,
  186, 185,
  188, 187,
  190, 189,
  192, 191,
  194, 193,
  192, 189,
  196, 195,
  198, 197,
  200, 199,
  198, 195,
  202, 201,
  204, 203,
  206, 205,
  208, 207,
  210, 209,
  208, 205,
  212, 211,
  214, 213,
  216, 215,
  218, 217,
  220, 219,
  218, 215,
  222, 221,
  224, 223,
  226, 225,
  224, 221,
  228, 227,
  230, 229,
  232, 231,
  234, 233,
  236, 235,
  234, 231,
  238, 237,
  240, 239,
  242, 241,
  240, 237,
  244, 243,
  246, 245,
  248, 247,
  250, 249,
  252, 251,
  250, 247,
  254, 253,
  256, 255,
  258, 257,
  260, 259,
  262, 261,
  260, 257,
  264, 263,
  266, 265,
  268, 267,
  266, 263,
  270, 269,
  272, 271,
  274, 273,
  276, 275,
  278, 277,
  276, 273,
  280, 279,
  282, 281,
  284, 283,
  286, 285,
  288, 287,
  286, 283
]);
d_nfa = array2d(1..466, 1..2, [
  {}, {},
  {}, {},
  {}, {},
  {}, {},
  {}, {},
  {}, {},
  {}, {},
  {}, {},
  {}, {},
  {}, {},
  {}, {},
  {}, {},
  {}, {},
  {}, {},
  {}, {},
  {}, {},
  {}, {},
  {}, {},
  {}, {},
  {}, {},
  {}, {},
  {}, {},
  {}, {},
  {}, {},
  {}, {},
  {}, {},
  {}, {},
  {}, {},
  {}, {},
  {}, {},
  {}, {},
  {}, {},
  {}, {},
  {}, {},
  {}, {},
  {}, {},
  {}, {},
  {}, {},
  {}, {},
  {}, {},
  {}, {},
  {}, {},
  {}, {},
  {}, {},
  {}, {},
  {}, {},
  {}, {},
  {}, {},
  {}, {},
  {}, {},
  {}, {},
  {}, {},
  {}, {},
  {}, {},
  {}, {},
  {}, {},
  {}, {},
  {}, {},
  {}, {},
  {}, {},
  {}, {},
  {}, {},
  {}, {},
  {}, {},
  {}, {},
  {}, {},
  {}, {},
  {}, {},
  {}, {},
  {}, {},
  {}, {},
  {}, {},
  {}, {},
  {}, {},
  {}, {},
  {}, {},
  {}, {},
  {}, {},
  {}, {},
  {}, {},
  {}, {},
  {}, {},
  {}, {},
  {}, {},
  {}, {},
  {}, {},
  {}, {},
  {}, {},
  {}, {},
  {}, {},
  {}, {},
  {}, {},
  {}, {},
  {}, {},
  {}, {},
  {}, {},
  {}, {},
  {}, {},
  {}, {},
  {}, {},
  {}, {},
  {}, {},
  {}, {},
  {}, {},
  {}, {},
  {}, {},
  {}, {},
  {}, {},
  {}, {},
  {}, {},
  {}, {},
  {}, {},
  {}, {},
  {}, {},
  {}, {},
  {}, {},
  {}, {},
  {}, {},
  {}, {},
  {}, {},
  {}, {},
  {}, {},
  {}, {},
  {}, {},
  {}, {},
  {}, {},
  {}, {},
  {}, {},
  {}, {},
  {}, {},
  {}, {},
  {}, {},
  {}, {},
  {}, {},
  {}, {},
  {}, {},
  {}, {},
  {}, {},
  {}, {},
  {}, {},
  {}, {},
  {}, {},
  {}, {},
  {}, {},
  {}, {},
  {}, {},
  {}, {},
  {}, {},
  {}, {},
  {}, {},
  {}, {},
  {}, {},
  {}, {},
  {}, {},
  {}, {},
  {}, {},
  {}, {},
  {}, {},
  {}, {},
  {}, {},
  {}, {},
  {}, {},
  {}, {},
  {}, {},
  {}, {},
  {}, {},
  {}, {},
  {}, {},
  {}, {},
  {}, {},
  {}, {},
  {}, {},
  {}, {},
  {}, {},
  {}, {},
  {}, {},
  {}, {},
  {}, {},
  {}, {},
  {}, {},
  {}, {},
  {}, {},
  {}, {},
  {}, {},
  {}, {},
  {}, {},
  {}, {},
  {}, {},
  {}, {},
  {}, {},
  {}, {},
  {}, {},
  {}, {},
  {}, {},
  {}, {},
  {}, {},
  {}, {},
  {}, {},
  {}, {},
  {}, {},
  {}, {},
  {}, {},
  {}, {},
  {}, {},
  {}, {},
  {}, {},
  {}, {},
  {}, {},
  {}, {},
  {}, {},
  {}, {},
  {}, {},
  {}, {},
  {}, {},
  {}, {},
  {}, {},
  {}, {},
  {}, {},
  {}, {},
  {}, {},
  {}, {},
  {}, {},
  {}, {},
  {}, {},
  {}, {},
  {}, {},
  {}, {},
  {}, {},
  {}, {},
  {}, {},
  {}, {},
  {}, {},
  {}, {},
  {}, {},
  {}, {},
  {}, {},
  {}, {},
  {}, {},
  {}, {},
  {}, {},
  {}, {},
  {}, {},
  {}, {},
  {}, {},
  {}, {},
  {}, {},
  {}, {},
  {}, {},
  {}, {},
  {}, {},
  {}, {},
  {}, {},
  {}, {},
  {}, {},
  {}, {},
  {}, {},
  {}, {},
  {}, {},
  {}, {},
  {}, {},
  {}, {},
  {}, {},
  {}, {},
  {}, {},
  {}, {},
  {}, {},
  {}, {},
  {}, {},
  {}, {},
  {}, {},
  {}, {},
  {}, {},
  {}, {},
  {}, {},
  {}, {},
  {}, {},
  {}, {},
  {}, {},
  {}, {},
  {}, {},
  {}, {},
  {}, {},
  {}, {},
  {}, {},
  {}, {},
  {}, {},
  {}, {},
  {}, {},
  {}, {},
  {}, {},
  {}, {},
  {}, {},
  {}, {},
  {}, {},
  {}, {},
  {}, {},
  {}, {},
  {}, {},
  {}, {},
  {}, {},
  {}, {},
  {}, {},
  {}, {},
  {}, {},
  {}, {},
  {}, {},
  {}, {},
  {}, {},
  {}, {},
  {}, {},
  {}, {},
  {}, {},
  {}, {},
  {}, {},
  {}, {},
  {}, {},
  {}, {},
  {}, {},
  {}, {},
  {}, {},
  {}, {},
  {}, {},
  {}, {},
  {}, {},
  {}, {},
  {}, {},
  {}, {},
  {}, {},
  {}, {},
  {}, {},
  {}, {},
  {}, {},
  {}, {},
  {}, {},
  {}, {},
  {}, {},
  {}, {},
  {}, {},
  {}, {},
  {}, {},
  {}, {},
  {}, {},
  {}, {},
  {}, {},
  {}, {},
  {}, {},
  {}, {},
  {}, {},
  {}, {},
  {}, {},
  {}, {},
  {}, {},
  {}, {},
  {}, {},
  {}, {},
  {}, {},
  {}, {},
  {}, {},
  {}, {},
  {}, {},
  {}, {},
  {}, {},
  {}, {},
  {}, {},
  {}, {},
  {}, {},
  {}, {},
  {}, {},
  {}, {},
  {}, {},
  {}, {},
  {}, {},
  {}, {},
  {}, {},
  {}, {},
  {}, {},
  {}, {},
  {}, {},
  {}, {},
  {}, {},
  {}, {},
  {}, {},
  {}, {},
  {}, {},
  {}, {},
  {}, {},
  {}, {},
  {}, {},
  {}, {},
  {}, {},
  {}, {},
  {}, {},
  {}, {},
  {}, {},
  {}, {},
  {}, {},
  {}, {},
  {}, {},
  {}, {},
  {}, {},
  {}, {},
  {}, {},
  {}, {},
  {}, {},
  {}, {},
  {}, {},
  {}, {},
  {}, {},
  {}, {},
  {}, {},
  {}, {},
  {}, {},
  {}, {},
  {}, {},
  {}, {},
  {}, {},
  {}, {},
  {}, {},
  {}, {},
  {}, {},
  {}, {},
  {}, {},
  {}, {},
  {}, {},
  {}, {},
  {}, {},
  {}, {},
  {}, {},
  {}, {},
  {}, {},
  {}, {},
  {}, {},
  {}, {},
  {}, {},
  {}, {},
  {}, {},
  {}, {},
  {}, {},
  {}, {},
  {}, {},
  {}, {},
  {}, {},
  {}, {},
  {}, {},
  {}, {},
  {}, {},
  {}, {},
  {}, {},
  {}, {},
  {}, {},
  {}, {},
  {}, {},
  {}, {},
  {}, {},
  {}, {},
  {}, {},
  {}, {},
  {}, {},
  {}, {},
  {}, {},
  {}, {},
  {}, {},
  {}, {},
  {}, {},
  {}, {},
  {}, {}
]);
